System  = BAND
ISTART  = 1
NWRITE  = 0

! electronic relaxation
ENCUT   = 500
PREC    = Accurate
ISPIN   = 1
ICHARG  = 11
ALGO    = Normal
EDIFF   = 1.0E-4
EDIFFG  = -1E-3
ISMEAR  = 0
SIGMA   = 0.05
NSW     = 0
IBRION  = -1
NELMIN  = 5
GGA     = PE

! PAW's
LREAL   = auto
NCORE   = 4

! parallelisation
LPLANE  = .FALSE.

! output
LWAVE   = .TRUE.
LCHARG  = .TRUE.

! Band Structure Calculation
RWIG    = 0.863 0.741 0.370 1.725 1.111
LORBIT  = 11
ISPIN   = 1
ICHARG  = 0