system  = GW
ISTART  = 1
NWRITE  = 0

! electronic relaxation
ENCUT   = 280
PREC    = Accurate
ISPIN   = 1
ICHARG  = 0
EDIFF   = 1.0E-4
EDIFFG  = -1E-3
ISMEAR  = 0
SIGMA   = 0.05
NSW     = 0
IBRION  = 2
NELMIN  = 4
GGA     = PE

! PAW's
LREAL   = .FALSE.

! parallelisation
LPLANE  = .FALSE.

! output
LWAVE   = .TRUE.
LCHARG  = .TRUE.

NBANDS  = 1080 