temp 
1.0 
0 15.3 0
-19.8753 1.275 0
0 0 15.3
Cu C H N 
111   32   16    4 
Selective Dynamics 
Cartesian 
-0.95161       1.2569      15.2995 	 	 	 T   T   T
-0.95383       3.8026      15.2863 	 	 	 T   T   T
-0.97685       6.4074      15.1533 	 	 	 T   T   T
-0.95828       9.0358      15.2928 	 	 	 T   T   T
-0.95228      11.5851      15.2989 	 	 	 T   T   T
-3.184       5.1207      15.2854 	 	 	 T   T   T
-5.4063       1.2744       15.293 	 	 	 T   T   T
-5.4055       3.8479      15.2899 	 	 	 T   T   T
-5.4075       6.4237      15.2826 	 	 	 T   T   T
-5.4017       8.9935      15.2956 	 	 	 T   T   T
-5.40546       11.568      15.2928 	 	 	 T   T   T
-17.9047      15.3329      13.1507 	 	 	 T   T   T
-17.9176      2.57573      13.1751 	 	 	 T   T   T
-17.9177      5.12397      13.1904 	 	 	 T   T   T
-17.9241      7.68501      13.2223 	 	 	 T   T   T
-17.921      10.2384      13.2027 	 	 	 T   T   T
-17.9087      12.7885      13.1825 	 	 	 T   T   T
-0.238742    0.0270389      13.1411 	 	 	 T   T   T
-0.242283      2.56242      13.1743 	 	 	 T   T   T
-0.250246      5.11123      13.1275 	 	 	 T   T   T
-0.248035      7.69806      13.1156 	 	 	 T   T   T
-0.241627      10.2558      13.1678 	 	 	 T   T   T
-0.236595      12.7902      13.1287 	 	 	 T   T   T
-2.45034      1.30344      13.1738 	 	 	 T   T   T
-2.46286      3.84805      13.1457 	 	 	 T   T   T
-2.47584      6.40951      13.1168 	 	 	 T   T   T
-2.4578      8.97239      13.1895 	 	 	 T   T   T
-2.44718      11.5181      13.1693 	 	 	 T   T   T
-2.44235      14.0567      13.1377 	 	 	 T   T   T
-4.65625      15.3304      13.1729 	 	 	 T   T   T
-4.66636      2.57769      13.1794 	 	 	 T   T   T
-4.6784      5.13264       13.183 	 	 	 T   T   T
-4.66931      7.68952      13.1981 	 	 	 T   T   T
-4.66158      10.2356      13.1701 	 	 	 T   T   T
-4.6484      12.7789      13.1466 	 	 	 T   T   T
-6.87981      1.30296      13.1747 	 	 	 T   T   T
-6.88781      3.85472      13.1771 	 	 	 T   T   T
-6.88918      6.40439      13.1742 	 	 	 T   T   T
-6.88132      8.95455      13.1715 	 	 	 T   T   T
-6.8695      11.4977      13.1541 	 	 	 T   T   T
-6.86478       14.045      13.1744 	 	 	 T   T   T
-9.07771      15.3102      13.1629 	 	 	 T   T   T
-9.0889      2.55866      13.1425 	 	 	 T   T   T
-9.09311      5.10941      13.1624 	 	 	 T   T   T
-9.09529      7.66451      13.1563 	 	 	 T   T   T
-9.08924      10.2113      13.1435 	 	 	 T   T   T
-9.07683      12.7616      13.1659 	 	 	 T   T   T
-11.2846      1.27898      13.1628 	 	 	 T   T   T
-11.2884       3.8325      13.1691 	 	 	 T   T   T
-11.2951       6.3832       13.137 	 	 	 T   T   T
-11.292      8.93376      13.1658 	 	 	 T   T   T
-11.2853      11.4879      13.1589 	 	 	 T   T   T
-11.2833      14.0341      13.1614 	 	 	 T   T   T
-13.4868      15.3064       13.162 	 	 	 T   T   T
-13.4921      2.55586      13.1683 	 	 	 T   T   T
-13.4868      5.10555      13.1719 	 	 	 T   T   T
-13.4897      7.66345      13.1683 	 	 	 T   T   T
-13.4925      10.2125      13.1661 	 	 	 T   T   T
-13.4868      12.7579      13.1627 	 	 	 T   T   T
-15.6939       1.2921      13.1763 	 	 	 T   T   T
-15.7004      3.84227      13.1789 	 	 	 T   T   T
-15.7079      6.39133      13.1922 	 	 	 T   T   T
-15.7009      8.94033      13.1878 	 	 	 T   T   T
-15.697      11.4912      13.1718 	 	 	 T   T   T
-15.6931      14.0408      13.1712 	 	 	 T   T   T
-10.7287      11.5898      17.5376 	 	 	 T   T   T
-0.95161       1.2569      12.0992 	 	 	 T   T   T
-0.95383       3.8026      12.0926 	 	 	 T   T   T
-18.6003        1.275         15.3 	 	 	 T   T   T
-18.5962        3.838      15.3242 	 	 	 T   T   T
-18.5864       6.4025      15.3163 	 	 	 T   T   T
-18.6174       8.9905      15.3595 	 	 	 T   T   T
-18.5962      11.5571      15.3149 	 	 	 T   T   T
-18.6006       14.119         15.3 	 	 	 T   T   T
-0.93336       14.025         15.3 	 	 	 T   T   T
-3.1881       2.5496      15.3022 	 	 	 T   T   T
-3.1701       7.7172       15.312 	 	 	 T   T   T
-3.18777      10.2915      15.3026 	 	 	 T   T   T
-3.17779      12.8458      15.3077 	 	 	 T   T   T
-3.14173         15.3         15.3 	 	 	 T   T   T
-5.35009       14.025         15.3 	 	 	 T   T   T
-7.6242       2.5878      15.3036 	 	 	 T   T   T
-7.6245       5.1553      15.3039 	 	 	 T   T   T
-7.6237       7.7213      15.3023 	 	 	 T   T   T
-7.62166      10.2896         15.3 	 	 	 T   T   T
-7.55846        12.75         15.3 	 	 	 T   T   T
-7.55846         15.3         15.3 	 	 	 T   T   T
-9.7668        1.275         15.3 	 	 	 T   T   T
-9.7668        3.825         15.3 	 	 	 T   T   T
-9.7668        6.375         15.3 	 	 	 T   T   T
-9.7668        8.925         15.3 	 	 	 T   T   T
-9.7668       11.475         15.3 	 	 	 T   T   T
-9.7668       14.025         15.3 	 	 	 T   T   T
-11.9752         2.55         15.3 	 	 	 T   T   T
-11.9752          5.1         15.3 	 	 	 T   T   T
-11.9752         7.65         15.3 	 	 	 T   T   T
-11.9752         10.2         15.3 	 	 	 T   T   T
-11.9752        12.75         15.3 	 	 	 T   T   T
-11.9752         15.3         15.3 	 	 	 T   T   T
-14.1836        1.275         15.3 	 	 	 T   T   T
-14.1836        3.825         15.3 	 	 	 T   T   T
-14.1836        6.375         15.3 	 	 	 T   T   T
-14.1836        8.925         15.3 	 	 	 T   T   T
-14.1836       11.475         15.3 	 	 	 T   T   T
-14.1836       14.025         15.3 	 	 	 T   T   T
-16.3919         2.55         15.3 	 	 	 T   T   T
-16.3919          5.1         15.3 	 	 	 T   T   T
-16.3919         7.65         15.3 	 	 	 T   T   T
-16.3919         10.2         15.3 	 	 	 T   T   T
-16.3919        12.75         15.3 	 	 	 T   T   T
-16.3919         15.3         15.3 	 	 	 T   T   T
-13.7339      6.82259      18.1583 	 	 	 T   T   T
-16.0849      7.36001       18.958 	 	 	 T   T   T
-16.9847       6.2821       19.223 	 	 	 T   T   T
-16.5399       4.9361      19.2325 	 	 	 T   T   T
-17.4025      3.90181      19.5435 	 	 	 T   T   T
-18.8629      7.91422      19.2902 	 	 	 T   T   T
-18.3751      6.56218       19.471 	 	 	 T   T   T
-19.2139      5.47862      19.8301 	 	 	 T   T   T
-18.7407      4.17747      19.8761 	 	 	 T   T   T
-16.5016      8.72148       19.073 	 	 	 T   T   T
-15.5891      9.80465      18.9716 	 	 	 T   T   T
-16.0203      11.1105      19.1094 	 	 	 T   T   T
-17.8926      8.99899      19.2662 	 	 	 T   T   T
-18.2954      10.3478      19.4178 	 	 	 T   T   T
-17.3815      11.3839      19.3529 	 	 	 T   T   T
-1.32951      6.11638      18.9679 	 	 	 T   T   T
-10.2633      6.35546      18.2007 	 	 	 T   T   T
-7.85554      6.17481      19.0006 	 	 	 T   T   T
-7.07576      7.35068      19.2018 	 	 	 T   T   T
-7.64529      8.65017      19.1377 	 	 	 T   T   T
-6.86734      9.77559      19.3151 	 	 	 T   T   T
-5.06243      5.92001      19.4586 	 	 	 T   T   T
-5.65946      7.22407      19.4377 	 	 	 T   T   T
-4.89502      8.40527      19.6185 	 	 	 T   T   T
-5.48188      9.65361      19.5621 	 	 	 T   T   T
-7.29114      4.87086      19.1013 	 	 	 T   T   T
-8.0622      3.68927      18.9335 	 	 	 T   T   T
-7.47677      2.44278      19.0228 	 	 	 T   T   T
-5.88385      4.74809      19.3486 	 	 	 T   T   T
-5.31743       3.4494       19.438 	 	 	 T   T   T
-6.09321      2.32043      19.2835 	 	 	 T   T   T
-2.61054      6.11597      19.2663 	 	 	 T   T   T
-15.4921      4.72438      19.0156 	 	 	 T   T   T
-17.035      2.87434      19.5518 	 	 	 T   T   T
-0.374807      4.40602      20.0919 	 	 	 T   T   T
-19.4109      3.36803      20.1685 	 	 	 T   T   T
-14.532      9.59425      18.8046 	 	 	 T   T   T
-15.3017      11.9295      19.0389 	 	 	 T   T   T
-19.3489      10.5554      19.6076 	 	 	 T   T   T
-17.7159      12.4138      19.4908 	 	 	 T   T   T
-8.71639      8.75104      18.9561 	 	 	 T   T   T
-7.32709      10.7645      19.2655 	 	 	 T   T   T
-3.82544       8.3167       19.813 	 	 	 T   T   T
-4.87498      10.5491       19.706 	 	 	 T   T   T
-9.13177      3.77451      18.7382 	 	 	 T   T   T
-8.0874      1.54746      18.8936 	 	 	 T   T   T
-4.24884      3.36902      19.6402 	 	 	 T   T   T
-5.63751      1.33167      19.3591 	 	 	 T   T   T
-14.8189      7.08153      18.5727 	 	 	 T   T   T
-0.281853       6.9998      19.0829 	 	 	 T   T   T
-9.15907      6.29424      18.6336 	 	 	 T   T   T
-3.7346      5.70679      19.5975 	 	 	 T   T   T
